; Benchmark for LTL-sketching problem
(set-logic QF_UF)
(set-info :status unknown)
(declare-fun z_0_0 () Bool)
(declare-fun z_0_1 () Bool)
(declare-fun z_0_4 () Bool)
(declare-fun z_0_6 () Bool)
(declare-fun z_0_12 () Bool)
(declare-fun z_0_18 () Bool)
(declare-fun z_0_21 () Bool)
(declare-fun z_0_27 () Bool)
(declare-fun z_0_29 () Bool)
(declare-fun z_0_31 () Bool)
(declare-fun z_0_35 () Bool)
(declare-fun z_1_0 () Bool)
(declare-fun z_1_3 () Bool)
(declare-fun z_1_2 () Bool)
(declare-fun z_1_1 () Bool)
(declare-fun z_0_2 () Bool)
(declare-fun z_0_3 () Bool)
(declare-fun z_1_5 () Bool)
(declare-fun z_1_4 () Bool)
(declare-fun z_0_5 () Bool)
(declare-fun z_1_11 () Bool)
(declare-fun z_1_10 () Bool)
(declare-fun z_1_9 () Bool)
(declare-fun z_1_8 () Bool)
(declare-fun z_1_7 () Bool)
(declare-fun z_1_6 () Bool)
(declare-fun z_0_7 () Bool)
(declare-fun z_0_8 () Bool)
(declare-fun z_0_9 () Bool)
(declare-fun z_0_10 () Bool)
(declare-fun z_0_11 () Bool)
(declare-fun z_1_17 () Bool)
(declare-fun z_1_16 () Bool)
(declare-fun z_1_15 () Bool)
(declare-fun z_1_14 () Bool)
(declare-fun z_1_13 () Bool)
(declare-fun z_1_12 () Bool)
(declare-fun z_0_13 () Bool)
(declare-fun z_0_14 () Bool)
(declare-fun z_0_15 () Bool)
(declare-fun z_0_16 () Bool)
(declare-fun z_0_17 () Bool)
(declare-fun z_1_20 () Bool)
(declare-fun z_1_19 () Bool)
(declare-fun z_1_18 () Bool)
(declare-fun z_0_19 () Bool)
(declare-fun z_0_20 () Bool)
(declare-fun z_1_26 () Bool)
(declare-fun z_1_25 () Bool)
(declare-fun z_1_24 () Bool)
(declare-fun z_1_23 () Bool)
(declare-fun z_1_22 () Bool)
(declare-fun z_1_21 () Bool)
(declare-fun z_0_22 () Bool)
(declare-fun z_0_23 () Bool)
(declare-fun z_0_24 () Bool)
(declare-fun z_0_25 () Bool)
(declare-fun z_0_26 () Bool)
(declare-fun z_1_28 () Bool)
(declare-fun z_1_27 () Bool)
(declare-fun z_0_28 () Bool)
(declare-fun z_1_30 () Bool)
(declare-fun z_1_29 () Bool)
(declare-fun z_0_30 () Bool)
(declare-fun z_1_34 () Bool)
(declare-fun z_1_33 () Bool)
(declare-fun z_1_32 () Bool)
(declare-fun z_1_31 () Bool)
(declare-fun z_0_32 () Bool)
(declare-fun z_0_33 () Bool)
(declare-fun z_0_34 () Bool)
(declare-fun z_1_37 () Bool)
(declare-fun z_1_36 () Bool)
(declare-fun z_1_35 () Bool)
(declare-fun z_0_36 () Bool)
(declare-fun z_0_37 () Bool)
(declare-fun z_3_0 () Bool)
(declare-fun z_3_1 () Bool)
(declare-fun z_3_2 () Bool)
(declare-fun z_3_3 () Bool)
(declare-fun z_3_4 () Bool)
(declare-fun z_3_5 () Bool)
(declare-fun z_3_6 () Bool)
(declare-fun z_3_7 () Bool)
(declare-fun z_3_8 () Bool)
(declare-fun z_3_9 () Bool)
(declare-fun z_3_10 () Bool)
(declare-fun z_3_11 () Bool)
(declare-fun z_3_12 () Bool)
(declare-fun z_3_13 () Bool)
(declare-fun z_3_14 () Bool)
(declare-fun z_3_15 () Bool)
(declare-fun z_3_16 () Bool)
(declare-fun z_3_17 () Bool)
(declare-fun z_3_18 () Bool)
(declare-fun z_3_19 () Bool)
(declare-fun z_3_20 () Bool)
(declare-fun z_3_21 () Bool)
(declare-fun z_3_22 () Bool)
(declare-fun z_3_23 () Bool)
(declare-fun z_3_24 () Bool)
(declare-fun z_3_25 () Bool)
(declare-fun z_3_26 () Bool)
(declare-fun z_3_27 () Bool)
(declare-fun z_3_28 () Bool)
(declare-fun z_3_29 () Bool)
(declare-fun z_3_30 () Bool)
(declare-fun z_3_31 () Bool)
(declare-fun z_3_32 () Bool)
(declare-fun z_3_33 () Bool)
(declare-fun z_3_34 () Bool)
(declare-fun z_3_35 () Bool)
(declare-fun z_3_36 () Bool)
(declare-fun z_3_37 () Bool)
(declare-fun x_3_p () Bool)
(declare-fun x_3_-> () Bool)
(declare-fun x_3_U () Bool)
(declare-fun x_3_v () Bool)
(declare-fun x_3_& () Bool)
(declare-fun x_3_X () Bool)
(declare-fun x_3_! () Bool)
(declare-fun x_3_F () Bool)
(declare-fun x_3_G () Bool)
(assert
 z_0_0)
(assert
 (not z_0_1))
(assert
 (not z_0_4))
(assert
 (not z_0_6))
(assert
 (not z_0_12))
(assert
 (not z_0_18))
(assert
 (not z_0_21))
(assert
 (not z_0_27))
(assert
 (not z_0_29))
(assert
 (not z_0_31))
(assert
 (not z_0_35))
(assert
 (= z_0_0 (and z_1_0)))
(assert
 (= z_0_1 (and z_1_1 z_1_2 z_1_3)))
(assert
 (= z_0_2 (and z_1_2 z_1_3)))
(assert
 (= z_0_3 (and z_1_3 z_1_2)))
(assert
 (= z_0_4 (and z_1_4 z_1_5 z_1_1 z_1_2 z_1_3)))
(assert
 (= z_0_5 (and z_1_5 z_1_1 z_1_2 z_1_3)))
(assert
 (= z_0_6 (and z_1_6 z_1_7 z_1_8 z_1_9 z_1_10 z_1_11)))
(assert
 (= z_0_7 (and z_1_7 z_1_8 z_1_9 z_1_10 z_1_11)))
(assert
 (= z_0_8 (and z_1_8 z_1_9 z_1_10 z_1_11)))
(assert
 (= z_0_9 (and z_1_9 z_1_10 z_1_11 z_1_8)))
(assert
 (= z_0_10 (and z_1_10 z_1_11 z_1_8 z_1_9)))
(assert
 (= z_0_11 (and z_1_11 z_1_8 z_1_9 z_1_10)))
(assert
 (= z_0_12 (and z_1_12 z_1_13 z_1_14 z_1_15 z_1_16 z_1_17)))
(assert
 (= z_0_13 (and z_1_13 z_1_14 z_1_15 z_1_16 z_1_17)))
(assert
 (= z_0_14 (and z_1_14 z_1_15 z_1_16 z_1_17)))
(assert
 (= z_0_15 (and z_1_15 z_1_16 z_1_17 z_1_14)))
(assert
 (= z_0_16 (and z_1_16 z_1_17 z_1_14 z_1_15)))
(assert
 (= z_0_17 (and z_1_17 z_1_14 z_1_15 z_1_16)))
(assert
 (= z_0_18 (and z_1_18 z_1_19 z_1_20 z_1_0)))
(assert
 (= z_0_19 (and z_1_19 z_1_20 z_1_0)))
(assert
 (= z_0_20 (and z_1_20 z_1_0)))
(assert
 (= z_0_21 (and z_1_21 z_1_22 z_1_23 z_1_24 z_1_25 z_1_26)))
(assert
 (= z_0_22 (and z_1_22 z_1_23 z_1_24 z_1_25 z_1_26)))
(assert
 (= z_0_23 (and z_1_23 z_1_24 z_1_25 z_1_26)))
(assert
 (= z_0_24 (and z_1_24 z_1_25 z_1_26)))
(assert
 (= z_0_25 (and z_1_25 z_1_26 z_1_24)))
(assert
 (= z_0_26 (and z_1_26 z_1_24 z_1_25)))
(assert
 (= z_0_27 (and z_1_27 z_1_28 z_1_19 z_1_20 z_1_0)))
(assert
 (= z_0_28 (and z_1_28 z_1_19 z_1_20 z_1_0)))
(assert
 (= z_0_29 (and z_1_29 z_1_30 z_1_23 z_1_24 z_1_25 z_1_26)))
(assert
 (= z_0_30 (and z_1_30 z_1_23 z_1_24 z_1_25 z_1_26)))
(assert
 (let (($x153 (and z_1_31 z_1_32 z_1_33 z_1_34 z_1_15 z_1_16 z_1_17 z_1_14)))
 (= z_0_31 $x153)))
(assert
 (= z_0_32 (and z_1_32 z_1_33 z_1_34 z_1_15 z_1_16 z_1_17 z_1_14)))
(assert
 (= z_0_33 (and z_1_33 z_1_34 z_1_15 z_1_16 z_1_17 z_1_14)))
(assert
 (= z_0_34 (and z_1_34 z_1_15 z_1_16 z_1_17 z_1_14)))
(assert
 (= z_0_35 (and z_1_35 z_1_36 z_1_37 z_1_3 z_1_2)))
(assert
 (= z_0_36 (and z_1_36 z_1_37 z_1_3 z_1_2)))
(assert
 (= z_0_37 (and z_1_37 z_1_3 z_1_2)))
(assert
 (let (($x1218 (not z_3_0)))
 (= z_1_0 $x1218)))
(assert
 (= z_1_1 (not z_3_1)))
(assert
 (= z_1_2 (not z_3_2)))
(assert
 (let (($x1233 (not z_3_3)))
 (= z_1_3 $x1233)))
(assert
 (let (($x1238 (not z_3_4)))
 (= z_1_4 $x1238)))
(assert
 (= z_1_5 (not z_3_5)))
(assert
 (let (($x1248 (not z_3_6)))
 (= z_1_6 $x1248)))
(assert
 (let (($x1253 (not z_3_7)))
 (= z_1_7 $x1253)))
(assert
 (= z_1_8 (not z_3_8)))
(assert
 (let (($x1263 (not z_3_9)))
 (= z_1_9 $x1263)))
(assert
 (let (($x1268 (not z_3_10)))
 (= z_1_10 $x1268)))
(assert
 (= z_1_11 (not z_3_11)))
(assert
 (= z_1_12 (not z_3_12)))
(assert
 (let (($x1283 (not z_3_13)))
 (= z_1_13 $x1283)))
(assert
 (let (($x1288 (not z_3_14)))
 (= z_1_14 $x1288)))
(assert
 (let (($x1293 (not z_3_15)))
 (= z_1_15 $x1293)))
(assert
 (let (($x1298 (not z_3_16)))
 (= z_1_16 $x1298)))
(assert
 (= z_1_17 (not z_3_17)))
(assert
 (let (($x1308 (not z_3_18)))
 (= z_1_18 $x1308)))
(assert
 (let (($x1313 (not z_3_19)))
 (= z_1_19 $x1313)))
(assert
 (= z_1_20 (not z_3_20)))
(assert
 (= z_1_21 (not z_3_21)))
(assert
 (let (($x1328 (not z_3_22)))
 (= z_1_22 $x1328)))
(assert
 (let (($x1333 (not z_3_23)))
 (= z_1_23 $x1333)))
(assert
 (= z_1_24 (not z_3_24)))
(assert
 (let (($x1343 (not z_3_25)))
 (= z_1_25 $x1343)))
(assert
 (= z_1_26 (not z_3_26)))
(assert
 (= z_1_27 (not z_3_27)))
(assert
 (= z_1_28 (not z_3_28)))
(assert
 (let (($x1363 (not z_3_29)))
 (= z_1_29 $x1363)))
(assert
 (= z_1_30 (not z_3_30)))
(assert
 (let (($x1373 (not z_3_31)))
 (= z_1_31 $x1373)))
(assert
 (let (($x1378 (not z_3_32)))
 (= z_1_32 $x1378)))
(assert
 (let (($x1383 (not z_3_33)))
 (= z_1_33 $x1383)))
(assert
 (= z_1_34 (not z_3_34)))
(assert
 (= z_1_35 (not z_3_35)))
(assert
 (= z_1_36 (not z_3_36)))
(assert
 (let (($x1403 (not z_3_37)))
 (= z_1_37 $x1403)))
(assert
 (and true true))
(assert
 (let (($x1218 (not z_3_0)))
 (=> x_3_p $x1218)))
(assert
 (=> x_3_p z_3_1))
(assert
 (=> x_3_p z_3_2))
(assert
 (let (($x1233 (not z_3_3)))
 (=> x_3_p $x1233)))
(assert
 (let (($x1238 (not z_3_4)))
 (=> x_3_p $x1238)))
(assert
 (=> x_3_p z_3_5))
(assert
 (let (($x1248 (not z_3_6)))
 (=> x_3_p $x1248)))
(assert
 (let (($x1253 (not z_3_7)))
 (=> x_3_p $x1253)))
(assert
 (=> x_3_p z_3_8))
(assert
 (let (($x1263 (not z_3_9)))
 (=> x_3_p $x1263)))
(assert
 (let (($x1268 (not z_3_10)))
 (=> x_3_p $x1268)))
(assert
 (=> x_3_p z_3_11))
(assert
 (=> x_3_p z_3_12))
(assert
 (let (($x1283 (not z_3_13)))
 (=> x_3_p $x1283)))
(assert
 (let (($x1288 (not z_3_14)))
 (=> x_3_p $x1288)))
(assert
 (let (($x1293 (not z_3_15)))
 (=> x_3_p $x1293)))
(assert
 (let (($x1298 (not z_3_16)))
 (=> x_3_p $x1298)))
(assert
 (=> x_3_p z_3_17))
(assert
 (let (($x1308 (not z_3_18)))
 (=> x_3_p $x1308)))
(assert
 (let (($x1313 (not z_3_19)))
 (=> x_3_p $x1313)))
(assert
 (=> x_3_p z_3_20))
(assert
 (=> x_3_p z_3_21))
(assert
 (let (($x1328 (not z_3_22)))
 (=> x_3_p $x1328)))
(assert
 (let (($x1333 (not z_3_23)))
 (=> x_3_p $x1333)))
(assert
 (=> x_3_p z_3_24))
(assert
 (let (($x1343 (not z_3_25)))
 (=> x_3_p $x1343)))
(assert
 (=> x_3_p z_3_26))
(assert
 (=> x_3_p z_3_27))
(assert
 (=> x_3_p z_3_28))
(assert
 (let (($x1363 (not z_3_29)))
 (=> x_3_p $x1363)))
(assert
 (=> x_3_p z_3_30))
(assert
 (let (($x1373 (not z_3_31)))
 (=> x_3_p $x1373)))
(assert
 (let (($x1378 (not z_3_32)))
 (=> x_3_p $x1378)))
(assert
 (let (($x1383 (not z_3_33)))
 (=> x_3_p $x1383)))
(assert
 (=> x_3_p z_3_34))
(assert
 (=> x_3_p z_3_35))
(assert
 (=> x_3_p z_3_36))
(assert
 (let (($x1403 (not z_3_37)))
 (=> x_3_p $x1403)))
(assert
 (or x_3_p))
(assert
 (let (($x1425 (not x_3_->)))
 (let (($x1423 (not x_3_U)))
 (let (($x1421 (not x_3_v)))
 (let (($x1419 (not x_3_&)))
 (let (($x1417 (not x_3_X)))
 (let (($x1415 (not x_3_!)))
 (let (($x1413 (not x_3_F)))
 (let (($x1411 (not x_3_G)))
 (and $x1411 $x1413 $x1415 $x1417 $x1419 $x1421 $x1423 $x1425))))))))))
(check-sat)

